 $system timlim=999999100 mwords=500 $end
 $contrl scftyp=rhf runtyp=energy
  dfttyp=bhhlyp icharg=+1
  maxit=200 mult=1
 $end
 $dft sg1=.true. $end
 $basis gbasis=n31 ngauss=6 ndfunc=1 $end
 $DATA 
 Gas Phase 
 C1 
H      1.0 1.424232155616974 -3.2158149933631064 0.3634743710197473
N      7.0 1.0407011494327847 -2.3049556111267977 0.837824042151048
H      1.0 1.3124747229959468 -2.2003629959505675 1.8823512692005144
C      6.0 -1.2023281436624307 2.820295840910195 -0.7501152786022148
C      6.0 -0.7765225093363229 1.5694488324231506 -0.6624851332215042
C      6.0 -0.29478954790860207 1.074364650331783 0.6033083687173132
C      6.0 0.2441712323955542 -0.09735779837310805 1.0245733572953195
C      6.0 0.527982266220511 -1.2702265840694495 0.257719960133601
H      1.0 -1.5192919484597822 3.240945085409256 -1.7325309009038707
H      1.0 -0.3810713133520321 1.7652603388254415 1.2349047352208178
H      1.0 -1.2489273924187336 3.5949082784784845 0.10928652343422661
H      1.0 0.30038745475177003 -0.15778210597552325 2.0484142858986725
C      6.0 0.30840535488437737 -1.3904777187469788 -1.2303685646236415
H      1.0 -1.0678169265867887 0.8340563072618963 -1.5712901550439737
H      1.0 0.9368253515670376 -0.4836900014802524 -1.7273649105602151
H      1.0 -0.6146705332086454 -1.1901040258083433 -1.4941338451697557
H      1.0 0.6130716817663079 -2.40312241016666 -1.730772146904083
 $END
