 $SYSTEM MWORDS=500 $END
 $CONTRL SCFTYP=RHF dfttyp=bhhlyp ICHARG=0
  RUNTYP=GRADIENT COORD=TINKER $END
 $basis gbasis=n31 ngauss=6 ndfunc=1 $end
 $guess guess=moread norb=107 $end
 $dft sg1=.true. $end
 $LINK ESPF=.T.
  IQMATM(1)=
  1,2,3,4,5,6,7,8,9,10,
  11,12,13,14,15,16,17,
  18,19,20,21,22,23,24,
  25,26,27,28,29,30,31,
  32,33,34
  RADMM=300.0 
 $END
 $TINKEY
parameters /users/PCON0010/danilk/TINKER_PRM/OPLS-AA-MTDP.prm
extraterm none
ACTIVE -1 220
 $END
 $TINXYZ
  5470
     1  N     29.549999   33.270000   27.750000   910     2    29    34
     2  C     28.699999   32.639999   28.759998   911     1     4     5
     3  CT    30.309999   31.140001   27.930000   912     4    29    30    31
     4  C=    29.170000   31.259998   28.980000   913     2     3     6
     5  O     27.840000   33.360001   29.300001   914     2
     6  C=    28.590000   30.290001   29.790001   915     4     7     8
     7  CT    27.349998   30.629999   30.599998   916     6     9    24    25
     8  CM    28.859999   28.970001   29.980000   917     6    10    13
     9  CT    26.650000   29.270000   30.860001   918     7    10    11    12
    10  CP    27.809999   28.340000   30.550001   919     8     9    15
    11  HC    25.739998   29.030001   30.389999   920     9
    12  HC    26.310001   29.180000   31.900002   921     9
    13  CS    29.890001   28.029999   29.540001   922     8    14    16
    14  CB    29.510000   26.689999   29.840000   923    13    15    18
    15  SA    27.920000   26.580000   30.539999   924    10    14
    16  CA    31.219999   28.280001   29.139999   925    13    17    20
    17  CA    32.079998   27.180000   28.750000   926    16    19    21
    18  CA    30.250000   25.629999   29.489998   927    14    19    22
    19  CA    31.520000   25.880001   28.880001   928    17    18    23
    20  HA    31.549999   29.340000   29.070000   929    16
    21  HA    33.070000   27.400000   28.459999   930    17
    22  HA    29.980000   24.639999   29.670000   931    18
    23  HA    32.190002   25.050001   28.810001   932    19
    24  CT    27.790001   31.359999   31.800001   933     7    26    27    28
    25  HC    26.650000   31.210001   29.990002   934     7
    26  HC    28.299999   30.769999   32.579998   935    24
    27  HC    26.910000   31.770000   32.360001   936    24
    28  HC    28.299999   32.270000   31.490000   937    24
    29  CT    30.139999   32.239998   26.910000   938     1     3    32    33
    30  HC    30.240000   30.240000   27.379999   939     3
    31  HC    31.280001   31.180000   28.420000   940     3
    32  HC    30.900000   32.540001   26.219999   941    29
    33  HC    29.320000   31.849998   26.389999   942    29
    34  H     29.500000   34.170002   27.340000   943     1
    35  CT    23.599998   27.850000   31.440001    99    36    37    38    39
    36  HC    23.859999   27.340000   30.550001    98    35
    37  HC    24.370001   27.740000   32.169998    98    35
    38  HC    23.599998   28.920000   31.189999    98    35
    39  OH    22.260000   27.480000   31.709999    96    35    40
    40  HO    21.740000   27.320002   30.900000    97    39
    41  CT    33.399998   26.320000   25.940001    99    42    43    44    45
    42  HC    32.309998   26.270000   25.920000    98    41
    43  HC    33.790001   25.869999   26.870001    98    41
    44  HC    33.629997   27.369999   26.049999    98    41
    45  OH    33.910000   25.820000   24.809999    96    41    46
    46  HO    33.310001   25.209999   24.340000    97    45
    47  CT    34.799999   29.519999   29.110001    99    48    49    50    51
    48  HC    33.779999   29.709999   29.500000    98    47
    49  HC    35.330002   30.410000   29.440001    98    47
    50  HC    34.779999   29.349998   28.050001    98    47
    51  OH    35.180000   28.330000   29.799999    96    47    52
    52  HO    35.220001   28.440001   30.769999    97    51
    53  CT    30.840000   35.669998   25.200001    99    54    55    56    57
    54  HC    30.790001   35.070000   24.300001    98    53
    55  HC    30.959999   36.730000   24.910000    98    53
    56  HC    31.750000   35.420002   25.739998    98    53
    57  OH    29.660000   35.570000   25.959999    96    53    58
    58  HO    28.920000   35.849998   25.400000    97    57
    59  CT    32.860001   23.800001   31.510000    99    60    61    62    63
    60  HC    33.200001   23.710001   32.560001    98    59
    61  HC    32.860001   24.809999   31.259998    98    59
    62  HC    31.789999   23.520000   31.619999    98    59
    63  OH    33.389999   22.910000   30.550001    96    59    64
    64  HO    34.119999   23.280001   30.109999    97    63
    65  CT    26.230000   34.320000   33.889999    99    66    67    68    69
    66  HC    26.840000   33.450001   33.619999    98    65
    67  HC    25.790001   34.230000   34.799999    98    65
    68  HC    25.580002   34.230000   33.049999    98    65
    69  OH    26.980000   35.549999   33.870003    96    65    70
    70  HO    27.480000   35.599998   33.049999    97    69
    71  CT    25.869999   30.090000   34.809998    99    72    73    74    75
    72  HC    25.830000   30.459999   35.849998    98    71
    73  HC    25.459999   29.200001   34.809998    98    71
    74  HC    26.940001   30.020000   34.509998    98    71
    75  OH    25.060001   30.820000   33.919998    96    71    76
    76  HO    24.349998   31.170002   34.439999    97    75
    77  CT    30.050001   29.170000   24.389999    99    78    79    80    81
    78  HC    29.020000   29.510000   24.690001    98    77
    79  HC    30.790001   29.980000   24.570000    98    77
    80  HC    30.340000   28.380001   25.120001    98    77
    81  OH    30.109999   28.619999   23.120001    96    77    82
    82  HO    30.959999   28.239998   23.029999    97    81
    83  CT    33.610001   33.070000   29.590000    99    84    85    86    87
    84  HC    33.610001   32.020000   29.580000    98    83
    85  HC    33.399998   33.459999   30.570000    98    83
    86  HC    32.770000   33.369999   28.950001    98    83
    87  OH    34.760002   33.610001   29.110001    96    83    88
    88  HO    34.889999   33.290001   28.230000    97    87
    89  CT    28.750000   36.220001   30.650002    99    90    91    92    93
    90  HC    29.119999   37.090000   31.199999    98    89
    91  HC    27.939999   36.590000   30.039999    98    89
    92  HC    29.580000   35.869999   30.060001    98    89
    93  OH    28.150002   35.250000   31.500000    96    89    94
    94  HO    27.889999   34.430000   31.000000    97    93
    95  CT    30.780001   22.550001   27.060001    99    96    97    98    99
    96  HC    31.879999   22.379999   27.100000    98    95
    97  HC    30.550001   22.520000   26.020000    98    95
    98  HC    30.510002   23.450001   27.490002    98    95
    99  OH    29.960001   21.490000   27.750000    96    95   100
   100  HO    30.130001   20.629999   27.320002    97    99
   101  CT    24.700001   34.590000   29.020000    99   102   103   104   105
   102  HC    25.629999   34.389999   28.529999    98   101
   103  HC    24.260002   35.549999   28.719999    98   101
   104  HC    25.020000   34.509998   30.039999    98   101
   105  OH    23.800001   33.480000   28.660000    96   101   106
   106  HO    23.520000   32.920002   29.410000    97   105
   107  CT    30.959999   27.509998   32.990002    99   108   109   110   111
   108  HC    29.980000   27.080000   32.830002    98   107
   109  HC    30.980000   28.459999   33.610001    98   107
   110  HC    31.410000   27.650002   32.000000    98   107
   111  OH    31.639999   26.450001   33.670002    96   107   112
   112  HO    32.550003   26.660000   33.559998    97   111
   113  CT    26.600000   24.219999   28.160000    99   114   115   116   117
   114  HC    26.289999   23.360001   27.579998    98   113
   115  HC    27.590000   24.580000   27.809999    98   113
   116  HC    25.910000   24.990002   27.889999    98   113
   117  OH    26.500000   23.929998   29.560001    96   113   118
   118  HO    27.250000   23.280001   29.700001    97   117
   119  CT    31.889999   31.029999   32.349998    99   120   121   122   123
   120  HC    31.099998   30.320000   32.610001    98   119
   121  HC    32.040001   31.740000   33.189999    98   119
   122  HC    31.490000   31.520000   31.389999    98   119
   123  OH    33.200001   30.500000   32.230000    96   119   124
   124  HO    33.340000   29.790001   32.910000    97   123
   125  CT    28.759998   21.320000   30.710001    99   126   127   128   129
   126  HC    28.250000   21.600000   31.660000    98   125
   127  HC    28.269999   20.590000   30.130001    98   125
   128  HC    29.750000   21.150000   31.000000    98   125
   129  OH    28.750000   22.410000   29.849998    96   125   130
   130  HO    29.070000   22.180000   28.990000    97   129
   131  CT    29.980000   31.760002   35.709999    99   132   133   134   135
   132  HC    30.690001   31.090000   35.330002    98   131
   133  HC    29.300001   31.830002   34.920002    98   131
   134  HC    30.430000   32.639999   36.170002    98   131
   135  OH    29.320000   30.980000   36.639999    96   131   136
   136  HO    28.980000   30.150002   36.290001    97   135
   137  CT    23.929998   30.620001   27.490002    99   138   139   140   141
   138  HC    24.660000   30.840000   26.630001    98   137
   139  HC    24.400002   30.760000   28.440001    98   137
   140  HC    23.120001   31.250000   27.349998    98   137
   141  OH    23.350000   29.400002   27.439999    96   137   142
   142  HO    22.959999   29.340000   26.559999    97   141
   143  CT    26.020000   26.320000   34.400002    99   144   145   146   147
   144  HC    26.230000   27.219999   33.860001    98   143
   145  HC    25.889999   25.500000   33.730000    98   143
   146  HC    26.900002   26.150000   35.020000    98   143
   147  OH    24.900000   26.459999   35.320000    96   143   148
   148  HO    25.309999   26.459999   36.170002    97   147
   149  CT    27.070000   27.959999   26.580000    99   150   151   152   153
   150  HC    27.950001   27.290001   26.610001    98   149
   151  HC    26.740000   28.299999   25.610001    98   149
   152  HC    27.460001   28.789999   27.139999    98   149
   153  OH    25.969999   27.240000   27.119999    96   149   154
   154  HO    25.230000   27.790001   27.320002    97   153
   155  CT    22.980001   32.290001   31.709999    99   156   157   158   159
   156  HC    23.350000   33.290001   31.980000    98   155
   157  HC    22.439999   31.789999   32.509998    98   155
   158  HC    22.349998   32.349998   30.799999    98   155
   159  OH    24.090000   31.689999   31.240002    96   155   160
   160  HO    24.770000   31.559999   31.940001    97   159
   161  CT    29.070000   38.329998   27.690001    99   162   163   164   165
   162  HC    28.610001   38.660000   26.760002    98   161
   163  HC    30.090000   38.440002   27.439999    98   161
   164  HC    28.820000   37.290001   27.820000    98   161
   165  OH    28.710001   39.110001   28.829998    96   161   166
   166  HO    27.740000   38.989998   28.950001    97   165
   167  CT    29.270000   23.780001   33.750000    99   168   169   170   171
   168  HC    29.570000   22.750000   33.849998    98   167
   169  HC    29.500000   24.090000   32.790001    98   167
   170  HC    28.199999   23.920000   33.699997    98   167
   171  OH    29.990002   24.600000   34.690002    96   167   172
   172  HO    30.710001   25.020000   34.250000    97   171
   173  CT    30.559999   34.860001   34.059998    99   174   175   176   177
   174  HC    29.920002   33.989998   34.150002    98   173
   175  HC    30.680000   34.949997   32.990002    98   173
   176  HC    30.139999   35.660000   34.639999    98   173
   177  OH    31.910000   34.700001   34.459999    96   173   178
   178  HO    32.279999   35.360001   33.980000    97   177
   179  CT    32.730000   37.009998   27.869999    99   180   181   182   183
   180  HC    31.879999   36.489998   28.150002    98   179
   181  HC    33.070000   37.490002   28.820000    98   179
   182  HC    32.610001   37.830002   27.190001    98   179
   183  OH    33.680000   36.059998   27.390001    96   179   184
   184  HO    33.930000   35.720001   28.310001    97   183
   185  CT    25.650002   32.099998   24.040001    99   186   187   188   189
   186  HC    26.459999   31.420000   23.789999    98   185
   187  HC    25.780001   32.980000   23.310001    98   185
   188  HC    24.719999   31.559999   23.730000    98   185
   189  OH    25.769999   32.620003   25.350000    96   185   190
   190  HO    24.969999   33.189999   25.539999    97   189
   191  CT    29.110001   31.639999   21.960001    99   192   193   194   195
   192  HC    28.510000   32.430000   21.480000    98   191
   193  HC    29.580000   31.980000   22.820000    98   191
   194  HC    29.860001   31.380001   21.289999    98   191
   195  OH    28.260000   30.480001   22.260000    96   191   196
   196  HO    28.750000   29.910000   22.820000    97   195
   197  CT    32.790001   34.209999   22.260000    99   198   199   200   201
   198  HC    33.060001   33.750000   23.199999    98   197
   199  HC    32.130001   35.079998   22.439999    98   197
   200  HC    33.740002   34.610001   21.879999    98   197
   201  OH    32.200001   33.279999   21.470001    96   197   202
   202  HO    31.879999   33.629997   20.610001    97   201
   203  CT    27.799999   35.650002   22.930000    99   204   205   206   207
   204  HC    27.119999   34.910000   23.350000    98   203
   205  HC    27.480000   36.090000   21.970001    98   203
   206  HC    28.540001   34.879997   22.630001    98   203
   207  OH    28.350000   36.660000   23.759998    96   203   208
   208  HO    29.040001   37.160000   23.330000    97   207
   209  CT    35.369999   26.170002   32.690002    99   210   211   212   213
   210  HC    36.230000   26.809999   32.410000    98   209
   211  HC    34.980000   25.669998   31.789999    98   209
   212  HC    35.730000   25.389999   33.299999    98   209
   213  OH    34.400002   27.060001   33.209999    96   209   214
   214  HO    34.760002   27.400000   34.020000    97   213
   215  CT    22.750000   25.320000   28.780001    99   216   217   218   219
   216  HC    22.809999   26.310001   28.310001    98   215
   217  HC    23.759998   24.860001   29.049999    98   215
   218  HC    22.100000   25.260000   29.709999    98   215
   219  OH    22.219999   24.430000   27.840000    96   215   220
   220  HO    23.020000   24.230001   27.299999    97   219
   221  CT    36.119999   31.840000   26.949999    99   222   223   224   225
   222  HC    36.660000   31.119999   26.280001    98   221
   223  HC    36.370003   31.400002   27.910000    98   221
   224  HC    36.520000   32.780003   26.689999    98   221
   225  OH    34.709999   31.740000   26.689999    96   221   226
   226  HO    34.619999   31.870001   25.750000    97   225
   227  CT    34.489998   30.559999   23.129999    99   228   229   230   231
   228  HC    33.680000   31.270000   23.290001    98   227
   229  HC    34.430000   30.139999   22.119999    98   227
   230  HC    34.320000   29.709999   23.780001    98   227
   231  OH    35.650002   31.119999   23.689999    96   227   232
   232  HO    36.270000   30.369999   23.750000    97   231
   233  CT    34.520000   20.599998   27.660000    99   234   235   236   237
   234  HC    33.689999   20.200001   27.049999    98   233
   235  HC    34.260002   20.490000   28.689999    98   233
   236  HC    34.549999   21.700001   27.480000    98   233
   237  OH    35.790001   19.980000   27.390001    96   233   238
   238  HO    35.599998   19.010000   27.330000    97   237
   239  CT    21.700001   29.230001   34.459999    99   240   241   242   243
   240  HC    22.410000   29.480000   33.650002    98   239
   241  HC    22.160000   28.590000   35.260002    98   239
   242  HC    21.170002   30.109999   34.869999    98   239
   243  OH    20.710001   28.430000   33.889999    96   239   244
   244  HO    21.170002   27.910000   33.279999    97   243
   245  CT    29.370001   27.509998   36.680000    99   246   247   248   249
   246  HC    28.970001   26.610001   37.200001    98   245
   247  HC    29.860001   28.239998   37.340000    98   245
   248  HC    30.160000   27.010000   36.080002    98   245
   249  OH    28.480000   28.260000   35.869999    96   245   250
   250  HO    28.350000   27.679998   35.190002    97   249
   251  CT    36.600002   27.820000   24.139999    99   252   253   254   255
   252  HC    35.910000   27.139999   23.520000    98   251
   253  HC    36.020000   28.400000   24.860001    98   251
   254  HC    37.180000   27.250000   24.860001    98   251
   255  OH    37.400002   28.759998   23.480000    96   251   256
   256  HO    37.660000   28.400000   22.620001    97   255
   257  CT    28.260000   25.420000   24.219999    99   258   259   260   261
   258  HC    29.000000   26.199999   24.180000    98   257
   259  HC    28.440001   24.930000   25.200001    98   257
   260  HC    27.250000   25.920000   24.139999    98   257
   261  OH    28.380001   24.440001   23.230000    96   257   262
   262  HO    27.900000   24.709999   22.410000    97   261
   263  CT    25.620001   37.630001   25.090000    99   264   265   266   267
   264  HC    25.780001   36.510002   25.030001    98   263
   265  HC    26.189999   38.040001   25.940001    98   263
   266  HC    24.519999   37.809998   25.299999    98   263
   267  OH    26.119999   38.220001   23.940001    96   263   268
   268  HO    27.000000   37.790001   23.840000    97   267
   269  CT    37.279999   23.480000   30.889999    99   270   271   272   273
   270  HC    36.830002   23.820000   31.789999    98   269
   271  HC    37.560001   24.379999   30.320000    98   269
   272  HC    38.259998   22.969999   31.059999    98   269
   273  OH    36.450001   22.620001   30.120001    96   269   274
   274  HO    36.849998   22.240000   29.289999    97   273
   275  CT    22.840000   32.639999   36.670002    99   276   277   278   279
   276  HC    21.879999   32.770000   37.200001    98   275
   277  HC    23.459999   31.940001   37.160000    98   275
   278  HC    23.330000   33.639999   36.549999    98   275
   279  OH    22.639999   32.160000   35.380001    96   275   280
   280  HO    22.100000   32.799999   34.949997    97   279
   281  CT    32.340000   20.280001   33.080002    99   282   283   284   285
   282  HC    31.750000   19.440001   33.440002    98   281
   283  HC    33.340000   20.150002   33.450001    98   281
   284  HC    31.960001   21.199999   33.480000    98   281
   285  OH    32.190002   20.400000   31.689999    96   281   286
   286  HO    32.830002   21.080000   31.429998    97   285
   287  CT    32.690002   28.759998   36.180000    99   288   289   290   291
   288  HC    33.160000   28.889999   37.139999    98   287
   289  HC    31.639999   28.990000   36.230000    98   287
   290  HC    32.850002   27.690001   35.969997    98   287
   291  OH    33.250000   29.580000   35.169998    96   287   292
   292  HO    33.230000   30.529999   35.280003    97   291
   293  CT    22.690001   24.460001   33.570000    99   294   295   296   297
   294  HC    22.439999   23.500000   33.230000    98   293
   295  HC    21.830002   25.039999   33.450001    98   293
   296  HC    23.529999   24.779999   32.860001    98   293
   297  OH    22.990000   24.500000   34.910000    96   293   298
   298  HO    23.299999   25.380001   35.200001    97   297
   299  CT    36.410000   34.240002   24.000000    99   300   301   302   303
   300  HC    35.650002   34.100002   24.760000    98   299
   301  HC    37.349998   33.770000   24.289999    98   299
   302  HC    35.930000   33.910000   23.010002    98   299
   303  OH    36.549999   35.619999   24.030001    96   299   304
   304  HO    35.759998   36.090000   24.389999    97   303
   305  CT    33.800003   37.780003   24.600000    99   306   307   308   309
   306  HC    34.459999   38.209999   23.929998    98   305
   307  HC    34.059998   38.189999   25.650002    98   305
   308  HC    32.840000   38.049999   24.289999    98   305
   309  OH    34.100002   36.489998   24.799999    96   305   310
   310  HO    33.940002   36.279999   25.750000    97   309
   311  CT    22.969999   35.239998   25.810001    99   312   313   314   315
   312  HC    21.949999   35.150002   26.230000    98   311
   313  HC    22.910000   35.590000   24.719999    98   311
   314  HC    23.459999   36.010002   26.429998    98   311
   315  OH    23.490000   33.940002   25.980000    96   311   316
   316  HO    23.570002   33.610001   26.860001    97   315
   317  CT    25.669998   28.529999   22.390001    99   318   319   320   321
   318  HC    25.260000   29.030001   23.269999    98   317
   319  HC    24.849998   27.959999   21.980000    98   317
   320  HC    26.520000   27.930000   22.660000    98   317
   321  OH    25.990000   29.470001   21.420000    96   317   322
   322  HO    26.719999   30.030001   21.730001    97   321
   323  CT    23.590000   21.870001   30.699999    99   324   325   326   327
   324  HC    22.900000   22.139999   29.930000    98   323
   325  HC    23.269999   20.930000   31.110001    98   323
   326  HC    23.629999   22.650002   31.490000    98   323
   327  OH    24.830000   21.650000   30.179998    96   323   328
   328  HO    25.280001   22.449999   29.790001    97   327
   329  CT    28.450001   33.919998   38.200001    99   330   331   332   333
   330  HC    27.639999   33.320000   37.720001    98   329
   331  HC    29.320000   34.200001   37.500000    98   329
   332  HC    28.870001   33.410000   39.049999    98   329
   333  OH    27.920000   35.180000   38.529999    96   329   334
   334  HO    27.660000   35.639999   37.730000    97   333
   335  CT    27.959999   21.189999   24.619999    99   336   337   338   339
   336  HC    27.439999   20.490000   25.209999    98   335
   337  HC    28.010002   20.699999   23.660000    98   335
   338  HC    28.929998   21.359999   25.020000    98   335
   339  OH    27.150000   22.390001   24.500000    96   335   340
   340  HO    27.579998   23.110001   24.049999    97   339
   341  CT    25.629999   36.440002   36.650002    99   342   343   344   345
   342  HC    25.200001   35.439999   36.530003    98   341
   343  HC    24.969999   37.070000   36.049999    98   341
   344  HC    25.450001   36.639999   37.750000    98   341
   345  OH    27.030001   36.400002   36.389999    96   341   346
   346  HO    27.200001   36.090000   35.490002    97   345
   347  CT    36.770000   30.209999   32.980000    99   348   349   350   351
   348  HC    36.059998   29.760000   33.639999    98   347
   349  HC    37.270000   29.440001   32.330002    98   347
   350  HC    36.259998   30.910000   32.340000    98   347
   351  OH    37.750000   30.869999   33.680000    96   347   352
   352  HO    38.239998   31.470001   33.110001    97   351
   353  CT    26.870001   19.270000   27.790001    99   354   355   356   357
   354  HC    26.919998   18.670000   28.699999    98   353
   355  HC    27.820000   19.590000   27.420002    98   353
   356  HC    26.350000   20.220001   27.850000    98   353
   357  OH    26.429998   18.469999   26.719999    96   353   358
   358  HO    25.500000   18.459999   26.700001    97   357
   359  CT    36.029999   21.930000   24.580000    99   360   361   362   363
   360  HC    36.770000   22.670000   24.660000    98   359
   361  HC    36.440002   20.910000   24.330002    98   359
   362  HC    35.560001   21.870001   25.559999    98   359
   363  OH    34.959999   22.430000   23.680000    96   359   364
   364  HO    35.380001   22.700001   22.860001    97   363
   365  CT    23.699999   37.490002   32.420002    99   366   367   368   369
   366  HC    23.220001   38.360001   32.709999    98   365
   367  HC    24.209999   37.809998   31.510000    98   365
   368  HC    24.379999   37.160000   33.290001    98   365
   369  OH    22.639999   36.580002   32.060001    96   365   370
   370  HO    22.180000   36.320000   32.860001    97   369
   371  CT    32.239998   26.570000   21.989998    99   372   373   374   375
   372  HC    32.939999   25.869999   21.580000    98   371
   373  HC    31.359999   25.950001   22.309999    98   371
   374  HC    31.930000   27.260000   21.180000    98   371
   375  OH    32.620003   27.360001   23.010002    96   371   376
   376  HO    32.970001   26.830002   23.730000    97   375
   377  CT    31.889999   23.180000   22.430000    99   378   379   380   381
   378  HC    30.780001   23.160000   22.340000    98   377
   379  HC    32.070000   22.080000   22.439999    98   377
   380  HC    32.330002   23.670002   21.619999    98   377
   381  OH    32.349998   23.680000   23.629999    96   377   382
   382  HO    33.290001   23.490000   23.710001    97   381
   383  CT    39.040001   26.740000   31.350000    99   384   385   386   387
   384  HC    38.360001   26.540001   30.529999    98   383
   385  HC    39.949997   27.130001   30.940001    98   383
   386  HC    38.529999   27.530001   31.889999    98   383
   387  OH    39.299999   25.699999   32.160000    96   383   388
   388  HO    39.869999   25.060001   31.750000    97   387
   389  CT    30.490000   17.940001   29.779999    99   390   391   392   393
   390  HC    30.320000   17.430000   30.760000    98   389
   391  HC    30.039999   17.270000   28.980000    98   389
   392  HC    29.949999   18.830000   29.750000    98   389
   393  OH    31.879999   18.220001   29.879999    96   389   394
   394  HO    31.879999   19.010000   30.380001    97   393
   395  CT    39.599998   28.880001   27.449999    99   396   397   398   399
   396  HC    38.540001   28.770000   27.260000    98   395
   397  HC    40.229996   28.380001   26.630001    98   395
   398  HC    39.830002   28.369999   28.389999    98   395
   399  OH    40.089996   30.190001   27.579998    96   395   400
   400  HO    39.840000   30.760000   26.840000    97   399
   401  CT    24.410000   24.650000   25.000000    99   402   403   404   405
   402  HC    25.389999   24.440001   24.389999    98   401
   403  HC    23.540001   24.580000   24.340000    98   401
   404  HC    24.449999   25.590000   25.490000    98   401
   405  OH    24.139999   23.699999   25.980000    96   401   406
   406  HO    24.189999   22.830000   25.610001    97   405
   407  CT    19.059999   27.550001   29.930000    99   408   409   410   411
   408  HC    19.030001   27.660000   30.969999    98   407
   409  HC    18.860001   28.510000   29.419998    98   407
   410  HC    18.370001   26.770000   29.619999    98   407
   411  OH    20.360001   27.139999   29.639999    96   407   412
   412  HO    20.340000   27.010000   28.699999    97   411
   413  CT    22.670000   28.870001   24.240000    99   414   415   416   417
   414  HC    22.000000   28.410000   23.540001    98   413
   415  HC    23.110001   29.690001   23.670002    98   413
   416  HC    23.320000   28.039999   24.570000    98   413
   417  OH    21.910000   29.570000   25.209999    96   413   418
   418  HO    21.210001   30.020000   24.740000    97   417
   419  CT    38.250000   31.590000   30.220001    99   420   421   422   423
   420  HC    37.190002   31.809999   30.250000    98   419
   421  HC    38.489998   31.980000   29.240000    98   419
   422  HC    38.399998   30.559999   30.109999    98   419
   423  OH    39.000000   32.130001   31.280001    96   419   424
   424  HO    39.900002   31.870001   31.010000    97   423
   425  CT    31.240002   37.529999   21.459999    99   426   427   428   429
   426  HC    30.969999   36.650002   20.900000    98   425
   427  HC    32.239998   37.529999   21.989998    98   425
   428  HC    31.280001   38.340000   20.710001    98   425
   429  OH    30.369999   37.880001   22.509998    96   425   430
   430  HO    30.500000   38.860001   22.650002    97   429
   431  CT    30.720001   19.440001   25.060001    99   432   433   434   435
   432  HC    30.850000   20.510002   24.910000    98   431
   433  HC    31.700001   18.980000   24.750000    98   431
   434  HC    29.960001   19.180000   24.330002    98   431
   435  OH    30.299999   19.030001   26.410000    96   431   436
   436  HO    30.020000   18.139999   26.329998    97   435
   437  CT    25.500000   39.860001   28.940001    99   438   439   440   441
   438  HC    24.680000   39.920002   28.269999    98   437
   439  HC    25.060001   40.050003   29.949999    98   437
   440  HC    26.350000   40.400002   28.599998    98   437
   441  OH    25.910000   38.489998   28.980000    96   437   442
   442  HO    25.130001   37.970001   29.119999    97   441
   443  CT    32.070000   40.510002   26.040001    99   444   445   446   447
   444  HC    31.189999   39.920002   25.699999    98   443
   445  HC    32.790001   40.459999   25.190001    98   443
   446  HC    32.449997   40.019997   26.930000    98   443
   447  OH    31.849998   41.889999   26.189999    96   443   448
   448  HO    32.680000   42.280003   26.119999    97   447
   449  CT    20.290001   33.000000   27.750000    99   450   451   452   453
   450  HC    20.260000   32.780003   26.689999    98   449
   451  HC    20.990000   32.330002   28.230000    98   449
   452  HC    20.580002   34.000000   27.869999    98   449
   453  OH    18.990000   32.930000   28.320000    96   449   454
   454  HO    18.700001   32.110001   27.990000    97   453
   455  CT    19.070000   30.869999   31.370001    99   456   457   458   459
   456  HC    18.660000   30.000000   31.900002    98   455
   457  HC    20.079998   30.830000   30.980000    98   455
   458  HC    18.309999   31.059999   30.539999    98   455
   459  OH    19.010000   31.910000   32.379997    96   455   460