 $system timlim=999999100 mwords=500 $end
 $contrl scftyp=reks runtyp=gradient dfttyp=bhhlyp icharg=0
  COORD=TINKER maxit=200 mult=1
 $end
 $reks rextype=1 rextarget=XXX
 wpps=0.5 rexshift=0.2
 rexdiis=no rxcgth=1e-05 $end
 $dft sg1=.true. $end
 $scf nconv=5 npunch=2 $end
 $guess guess=moread norb=107 $end
 $basis gbasis=n31 ngauss=6 ndfunc=1 $end
 $LINK ESPF=.T.
  IQMATM(1)=
  1,2,3,4,5,6,7,8,9,10,
  11,12,13,14,15,16,17,
  18,19,20,21,22,23,24,
  25,26,27,28,29,30,31,
  32,33,34
  RADMM=300.0 
 $END
 $TINKEY
parameters /users/PCON0010/danilk/TINKER_PRM/OPLS-AA-MTDP.prm
extraterm none
ACTIVE -1 220
 $END
 $TINXYZ
5470
1 N 29.576990882780 33.075574560451 27.179017824601 910 2 29 34
2 C 28.764338469900 32.717244408817 28.173375998572 911 1 4 5
3 CT 30.456953881398 30.952611518531 27.682563768378 912 4 29 30 31
4 C= 29.182172693941 31.313386225428 28.530040287180 913 2 3 6
5 O 27.851497636214 33.387091535277 28.676916581316 914 2
6 C= 28.467710570908 30.433219566314 29.150103090019 915 4 7 8
7 CT 27.278661165095 30.824073974578 29.994270807795 916 6 9 24 25
8 CM 28.581292846097 28.934255055583 29.449374572261 917 6 10 13
9 CT 26.405078638838 29.560680176932 30.354549667673 918 7 10 11 12
10 CP 27.401195993658 28.563496168059 29.977362982479 919 8 9 15
11 HC 25.489517766047 29.584994176628 29.738450807942 920 9
12 HC 26.166102324345 29.399788037464 31.416841095570 921 9
13 CS 29.572217964931 27.852665235057 29.322059632983 922 8 14 16
14 CB 28.999156666929 26.649525803723 29.649290331708 923 13 15 18
15 SA 27.336278106938 26.867964903713 30.202821488272 924 10 14
16 CA 30.965883770157 27.928448196000 29.110181935441 925 13 17 20
17 CA 31.684215928167 26.729679592018 29.130498887659 926 16 19 21
18 CA 29.841636995627 25.506774761036 29.833238383053 927 14 19 22
19 CA 31.115747593579 25.556312314060 29.534125829191 928 17 18 23
20 HA 31.598866465533 28.762498036279 29.069303539064 929 16
21 HA 32.769957783159 26.717160648489 29.016621196186 930 17
22 HA 29.467350985214 24.493232824746 30.074054697413 931 18
23 HA 31.731926423280 24.688683886421 29.684731025144 932 19
24 CT 27.729099842858 31.508903321178 31.329372962535 933 7 26 27 28
25 HC 26.607391626285 31.567591551285 29.593895483236 934 7
26 HC 28.430664973592 30.987129295335 31.987548184678 935 24
27 HC 26.759562808425 31.751574660859 31.775934553235 936 24
28 HC 28.234416343930 32.411694451197 31.066565004259 937 24
29 CT 30.248340827498 32.017603392694 26.553643046503 938 1 3 32 33
30 HC 30.376728044330 29.904469625821 27.468359804564 939 3
31 HC 31.345084056529 31.068795120524 28.224452339687 940 3
32 HC 31.205250826860 32.378631098715 26.275931498922 941 29
33 HC 29.906799356440 31.560502145734 25.657880232170 942 29
34 H 29.382540756525 33.945171768732 26.626588011345 943 1
35 CT 22.913257360647 28.460425077921 31.281312021296 99 36 37 38 39
36 HC 23.406451715497 28.305280312409 30.316212428549 98 35
37 HC 23.700530503411 28.354122903284 32.020682428978 98 35
38 HC 22.490961104159 29.537988686004 31.402284212756 98 35
39 OH 21.869118661592 27.577828195028 31.664542874931 96 35 40
40 HO 21.401956386092 27.328688537845 30.871933536712 97 39
41 CT 32.771778658835 25.774268637568 26.087011780832 99 42 43 44 45
42 HC 31.981113363028 25.123291534099 25.741799372612 98 41
43 HC 33.239774203884 25.472724220625 27.044165705635 98 41
44 HC 32.319238139883 26.768935691162 26.339504595853 98 41
45 OH 33.834215797155 25.970803337878 25.080859925312 96 41 46
46 HO 33.930890801449 25.108206632429 24.691269206168 97 45
47 CT 34.967730099062 29.207834744296 29.597198297352 99 48 49 50 51
48 HC 34.072317808954 29.803747136868 29.878694502726 98 47
49 HC 35.705029905329 29.721736004043 30.095180139806 98 47
50 HC 35.088765043034 29.116371304989 28.500288032291 98 47
51 OH 34.789766778410 27.946583611304 30.124552033275 96 47 52
52 HO 34.317333940096 27.999569945643 30.969447955855 97 51
53 CT 30.810796819158 35.960437576762 26.295395987289 99 54 55 56 57
54 HC 31.631184887534 35.382325680133 25.902978131983 98 53
55 HC 30.834537977462 37.024944585448 25.979603342012 98 53
56 HC 30.706823346310 35.946734375823 27.400971572985 98 53
57 OH 29.576958765122 35.391068451042 25.822394167644 96 53 58
58 HO 29.292647152795 36.026428202881 25.186575330196 97 57
59 CT 33.965024558484 23.493755109614 31.841218027274 99 60 61 62 63
60 HC 34.621056945234 23.591475626549 32.733230489362 98 59
61 HC 34.024487123477 24.307975522657 31.160985123940 98 59
62 HC 32.983821353481 23.465228859288 32.367659325347 98 59
63 OH 34.089605636843 22.228832119584 31.224767678298 96 59 64
64 HO 34.993825846865 22.261668723532 31.008266259898 97 63
65 CT 25.749985357623 34.580395633293 33.408044814337 99 66 67 68 69
66 HC 25.981791718442 33.573370109659 32.947534210470 98 65
67 HC 25.230181795225 34.509013020391 34.354586493228 98 65
68 HC 25.259690167324 35.039320015699 32.514077821189 98 65
69 OH 26.961231925487 35.233388129429 33.687209759489 96 65 70
70 HO 27.389913371944 35.115977798922 32.848346942599 97 69
71 CT 25.621182063324 30.567981419718 34.805400935534 99 72 73 74 75
72 HC 26.232890797601 31.334857947131 35.383668887572 98 71
73 HC 25.087295975917 29.885371931913 35.512710607371 98 71
74 HC 26.313177365734 29.900835311888 34.247820599812 98 71
75 OH 24.634541616690 30.942633753704 33.855102188763 96 71 76
76 HO 23.949482187797 31.339728918101 34.374654808323 97 75
77 CT 30.236331655118 29.347319553415 24.396191325395 99 78 79 80 81
78 HC 29.308330795822 29.818350170528 24.609168274110 98 77
79 HC 31.063494306152 29.825202258769 24.855534447727 98 77
80 HC 30.171566297093 28.398270441313 24.896367279694 98 77
81 OH 30.367901119916 29.046645387576 23.023623903111 96 77 82
82 HO 31.242087335490 28.536135889816 22.964903313171 97 81
83 CT 33.292630241822 33.335128097000 29.699807379776 99 84 85 86 87
84 HC 33.579913778933 32.272160195268 29.503048295072 98 83
85 HC 34.074474819627 33.876154260266 30.232363772307 98 83
86 HC 32.347647648674 33.307029723045 30.300481947505 98 83
87 OH 33.113590947826 33.919707166374 28.360669683696 96 83 88
88 HO 33.354435791154 33.286403088892 27.763313216826 97 87
89 CT 28.319286970646 36.330845231286 30.410823309023 99 90 91 92 93
90 HC 28.269959157226 36.959543828283 31.298429946035 98 89
91 HC 27.455444409304 36.595521529509 29.729088786172 98 89
92 HC 29.334449703353 36.467112977719 30.014421655630 98 89
93 OH 28.225697441175 35.007754700705 30.887323584383 96 89 94
94 HO 28.368227032895 34.411536575354 30.178180379796 97 93
95 CT 30.656992777551 22.466212186692 27.444754478356 99 96 97 98 99
96 HC 31.737735586403 22.278378484979 27.500555604306 98 95
97 HC 30.412451700138 22.488172818680 26.347792061990 98 95
98 HC 30.336226785152 23.369811218109 27.993458439178 98 95
99 OH 29.962709329299 21.413393160194 27.974770355328 96 95 100
100 HO 30.308453615383 20.645447870947 27.522792994252 97 99
101 CT 24.735516204206 34.267728774633 28.992889346526 99 102 103 104 105
102 HC 24.779403145129 34.729069013468 28.005741574461 98 101
103 HC 24.581985812950 35.028386069343 29.771223036761 98 101
104 HC 25.564094450694 33.605372104059 28.974242753643 98 101
105 OH 23.614192848526 33.469437248991 28.898532138604 96 101 106
106 HO 23.386907282479 33.127796482859 29.770899467249 97 105
107 CT 31.559730571646 27.296293968403 33.127913696000 99 108 109 110 111
108 HC 30.548891158060 27.014462879825 32.940627791278 98 107
109 HC 31.515702213893 28.161761765869 33.810001046864 98 107
110 HC 31.936409139151 27.618049011456 32.166303394470 98 107
111 OH 32.258559648727 26.225945681476 33.799065517580 96 107 112
112 HO 33.175864803891 26.484736940042 34.000628219647 97 111
113 CT 27.173554460093 23.982443104177 27.717846795306 99 114 115 116 117
114 HC 27.037959602352 23.207175301606 26.901687477315 98 113
115 HC 28.291744606836 24.237302008493 27.775901834075 98 113
116 HC 26.637605129774 24.851554850732 27.462908816139 98 113
117 OH 26.713704522083 23.422851030992 28.908071961739 96 113 118
118 HO 27.447559522569 22.956453122924 29.275230108697 97 117
119 CT 32.075044754989 30.757143781274 31.906324142213 99 120 121 122 123
120 HC 31.188387127266 30.319294883444 32.334513885644 98 119
121 HC 32.162876277859 31.702141622566 32.287353850071 98 119
122 HC 31.886731288329 30.779790072419 30.819063478133 98 119
123 OH 33.242733280661 30.059819212766 32.194268564301 96 119 124
124 HO 33.427914913040 30.072363879456 33.122785747571 97 123
125 CT 28.748209536352 21.083228620392 31.206962667205 99 126 127 128 129
126 HC 28.316717374012 21.324073123707 32.253445713180 98 125
127 HC 27.982636261378 20.598967501885 30.663640136938 98 125
128 HC 29.679905258269 20.565928525372 31.457356422501 98 125
129 OH 29.073174523190 22.239993240059 30.396193630628 96 125 130
130 HO 29.561567750255 22.037085281477 29.580040403399 97 129
131 CT 29.509024737530 31.329698336987 35.109976394226 99 132 133 134 135
132 HC 29.967641215252 30.454801487336 34.594155862452 98 131
133 HC 28.613535933241 31.480982263289 34.510924290889 98 131
134 HC 30.288943329544 32.080198253123 35.298623860534 98 131
135 OH 29.001678921210 30.908481942399 36.446715788726 96 131 136
136 HO 28.745966263076 29.989209182684 36.377525329913 97 135
137 CT 23.368395484869 30.392538099810 27.909090289145 99 138 139 140 141
138 HC 24.245809688466 30.797671152835 28.449914138674 98 137
139 HC 22.490700811922 30.499490464846 28.582167826568 98 137
140 HC 23.311820355663 30.927265078851 26.974230492003 98 137
141 OH 23.455879218055 28.996919855011 27.503272360153 96 137 142
142 HO 23.119216701389 28.981969942009 26.609142443682 97 141
143 CT 25.641678321169 26.291239623405 35.031011589028 99 144 145 146 147
144 HC 25.588707606781 26.405286531312 33.957588034655 98 143
145 HC 25.897271563001 25.253808030883 35.254187539650 98 143
146 HC 26.521383589896 26.910593151935 35.426209685230 98 143
147 OH 24.476104735788 26.614963522574 35.645023131056 96 143 148
148 HO 24.634929190902 26.787807754462 36.575458975856 97 147
149 CT 26.971947578299 29.059958385640 26.063590633258 99 150 151 152 153
150 HC 27.400360834335 29.053626940080 25.055106133714 98 149
151 HC 26.079199559379 29.705174565584 26.282270391696 98 149
152 HC 27.820283560021 29.345376568811 26.642560412310 98 149
153 OH 26.545262927291 27.788216680258 26.477753260075 96 149 154
154 HO 26.166520252081 27.862618982666 27.354603702050 97 153
155 CT 22.278185113936 32.855561828695 31.728495358045 99 156 157 158 159
156 HC 22.568778474065 33.852212416812 32.085459592271 98 155
157 HC 21.982305999602 32.405317790833 32.681692023304 98 155
158 HC 21.428035933905 32.918282822925 31.093036391048 98 155
159 OH 23.499929788314 32.150619416893 31.287952324919 96 155 160
160 HO 24.085591330674 31.947529384107 32.044839697232 97 159
161 CT 28.969691627449 39.050591214980 27.598160996404 99 162 163 164 165
162 HC 28.443027607698 39.787729798911 26.947768449861 98 161
163 HC 30.023486020170 39.149819175526 27.253333556295 98 161
164 HC 28.668486612521 38.021393175077 27.350468555044 98 161
165 OH 28.738089420190 39.337387888473 28.923922718954 96 161 166
166 HO 27.945832786506 38.879197354809 29.038632712085 97 165
167 CT 29.490658793316 23.942623779036 33.472399428348 99 168 169 170 171
168 HC 30.115779156418 24.206463580332 32.611897267615 98 167
169 HC 28.406296024018 24.096131591358 33.351895943400 98 167
170 HC 29.529300057835 22.819236787903 33.558760871009 98 167
171 OH 30.056182380131 24.612324285358 34.529999648311 96 167 172
172 HO 30.760839568967 25.199399066867 34.138943221060 97 171
173 CT 30.748572880658 34.678647636337 33.774100572478 99 174 175 176 177
174 HC 29.913419144223 34.052618518666 33.440698489138 98 173
175 HC 30.555977300290 35.519923987574 33.177155597524 98 173
176 HC 30.647689588008 34.830219743989 34.878353466762 98 173
177 OH 32.090567449104 34.313483875996 33.514940983540 96 173 178
178 HO 32.659631517167 35.148904721423 33.292426672566 97 177
179 CT 33.820596296784 37.785624395506 28.591966079270 99 180 181 182 183
180 HC 34.814454799355 37.823995832475 29.027626118479 98 179
181 HC 33.752961795723 38.735343749794 27.960501588421 98 179
182 HC 33.123266531384 38.069004330905 29.351898326926 98 179
183 OH 33.708975756606 36.675725115479 27.756830465532 96 179 184
184 HO 33.185170654270 35.992462837440 28.151650480154 97 183
185 CT 25.726343730353 32.132890811921 23.646714053063 99 186 187 188 189
186 HC 26.573124908801 31.491945256309 23.448451883590 98 185
187 HC 25.805695205573 32.970983206255 23.053647118383 98 185
188 HC 24.872197261858 31.551946815959 23.403802918121 98 185
189 OH 25.718604866712 32.299294345730 25.042842058893 96 185 190
190 HO 24.965912795584 32.743246869372 25.256097507462 97 189
191 CT 28.991380141334 32.118582367275 21.648598656402 99 192 193 194 195
192 HC 28.166974488928 32.578463525917 20.950067678275 98 191
193 HC 29.161087894487 32.606017772249 22.650474891209 98 191
194 HC 29.912301262373 32.197016114763 21.056788563764 98 191
195 OH 28.592044586969 30.784664814275 21.602266585017 96 191 196
196 HO 29.298482703850 30.197311860038 21.921992465842 97 195
197 CT 33.137043614627 34.398877613299 22.012310408895 99 198 199 200 201
198 HC 33.307054299231 34.139882173766 22.978219926287 98 197
199 HC 32.948071182519 35.484055435076 21.869115914066 98 197
200 HC 34.014774199952 34.158021400837 21.418736455204 98 197
201 OH 32.083864295329 33.689312851235 21.325034449978 96 197 202
202 HO 32.139335046591 33.886293742654 20.399171710066 97 201
203 CT 27.898689643083 35.527109264349 22.711616617729 99 204 205 206 207
204 HC 27.113878800789 34.968913685217 23.158436359059 98 203
205 HC 27.685690723473 35.927765502505 21.710918978887 98 203
206 HC 28.739275273300 34.844836377618 22.525588965820 98 203
207 OH 28.337279892694 36.561060842810 23.503697301882 96 203 208
208 HO 29.086885173300 36.904981986203 22.960638073954 97 207
209 CT 35.620332585019 26.544912411148 32.809919906509 99 210 211 212 213
210 HC 36.703072894456 26.770920082466 32.963420541678 98 209
211 HC 35.301064474910 26.372461630920 31.762834853917 98 209
212 HC 35.466820668375 25.668484496489 33.352633649717 98 209
213 OH 34.736827034350 27.446428047522 33.498207270670 96 209 214
214 HO 35.135006641677 27.746947146266 34.313978725594 97 213
215 CT 23.263115483362 25.066940973458 28.941253699576 99 216 217 218 219
216 HC 23.410401351971 26.089311986107 28.812407910854 98 215
217 HC 24.215583705856 24.553177581382 29.014996766686 98 215
218 HC 22.741209101824 24.802829650123 29.882952360457 98 215
219 OH 22.448344824948 24.604422685888 27.861814889296 96 215 220
220 HO 23.013654587956 24.188270748992 27.201246019344 97 219
221 CT 36.119999 31.840000 26.949999 99 222 223 224 225
222 HC 36.660000 31.119999 26.280001 98 221
223 HC 36.370003 31.400002 27.910000 98 221
224 HC 36.520000 32.780003 26.689999 98 221
225 OH 34.709999 31.740000 26.689999 96 221 226
226 HO 34.619999 31.870001 25.750000 97 225
227 CT 34.489998 30.559999 23.129999 99 228 229 230 231
228 HC 33.680000 31.270000 23.290001 98 227
229 HC 34.430000 30.139999 22.119999 98 227
230 HC 34.320000 29.709999 23.780001 98 227
231 OH 35.650002 31.119999 23.689999 96 227 232
232 HO 36.270000 30.369999 23.750000 97 231
233 CT 34.520000 20.599998 27.660000 99 234 235 236 237
234 HC 33.689999 20.200001 27.049999 98 233
235 HC 34.260002 20.490000 28.689999 98 233
236 HC 34.549999 21.700001 27.480000 98 233
237 OH 35.790001 19.980000 27.390001 96 233 238
238 HO 35.599998 19.010000 27.330000 97 237
239 CT 21.700001 29.230001 34.459999 99 240 241 242 243
240 HC 22.410000 29.480000 33.650002 98 239
241 HC 22.160000 28.590000 35.260002 98 239
242 HC 21.170002 30.109999 34.869999 98 239
243 OH 20.710001 28.430000 33.889999 96 239 244
244 HO 21.170002 27.910000 33.279999 97 243
245 CT 29.370001 27.509998 36.680000 99 246 247 248 249
246 HC 28.970001 26.610001 37.200001 98 245
247 HC 29.860001 28.239998 37.340000 98 245
248 HC 30.160000 27.010000 36.080002 98 245
249 OH 28.480000 28.260000 35.869999 96 245 250
250 HO 28.350000 27.679998 35.190002 97 249
251 CT 36.600002 27.820000 24.139999 99 252 253 254 255
252 HC 35.910000 27.139999 23.520000 98 251
253 HC 36.020000 28.400000 24.860001 98 251
254 HC 37.180000 27.250000 24.860001 98 251
255 OH 37.400002 28.759998 23.480000 96 251 256
256 HO 37.660000 28.400000 22.620001 97 255
257 CT 28.260000 25.420000 24.219999 99 258 259 260 261
258 HC 29.000000 26.199999 24.180000 98 257
259 HC 28.440001 24.930000 25.200001 98 257
260 HC 27.250000 25.920000 24.139999 98 257
261 OH 28.380001 24.440001 23.230000 96 257 262
262 HO 27.900000 24.709999 22.410000 97 261
263 CT 25.620001 37.630001 25.090000 99 264 265 266 267
264 HC 25.780001 36.510002 25.030001 98 263
265 HC 26.189999 38.040001 25.940001 98 263
266 HC 24.519999 37.809998 25.299999 98 263
267 OH 26.119999 38.220001 23.940001 96 263 268
268 HO 27.000000 37.790001 23.840000 97 267
269 CT 37.279999 23.480000 30.889999 99 270 271 272 273
270 HC 36.830002 23.820000 31.789999 98 269
271 HC 37.560001 24.379999 30.320000 98 269
272 HC 38.259998 22.969999 31.059999 98 269
273 OH 36.450001 22.620001 30.120001 96 269 274
274 HO 36.849998 22.240000 29.289999 97 273
275 CT 22.840000 32.639999 36.670002 99 276 277 278 279
276 HC 21.879999 32.770000 37.200001 98 275
277 HC 23.459999 31.940001 37.160000 98 275
278 HC 23.330000 33.639999 36.549999 98 275
279 OH 22.639999 32.160000 35.380001 96 275 280
280 HO 22.100000 32.799999 34.949997 97 279
281 CT 32.340000 20.280001 33.080002 99 282 283 284 285
282 HC 31.750000 19.440001 33.440002 98 281
283 HC 33.340000 20.150002 33.450001 98 281
284 HC 31.960001 21.199999 33.480000 98 281
285 OH 32.190002 20.400000 31.689999 96 281 286
286 HO 32.830002 21.080000 31.429998 97 285
287 CT 32.690002 28.759998 36.180000 99 288 289 290 291
288 HC 33.160000 28.889999 37.139999 98 287
289 HC 31.639999 28.990000 36.230000 98 287
290 HC 32.850002 27.690001 35.969997 98 287
291 OH 33.250000 29.580000 35.169998 96 287 292
292 HO 33.230000 30.529999 35.280003 97 291
293 CT 22.690001 24.460001 33.570000 99 294 295 296 297
294 HC 22.439999 23.500000 33.230000 98 293
295 HC 21.830002 25.039999 33.450001 98 293
296 HC 23.529999 24.779999 32.860001 98 293
297 OH 22.990000 24.500000 34.910000 96 293 298
298 HO 23.299999 25.380001 35.200001 97 297
299 CT 36.410000 34.240002 24.000000 99 300 301 302 303
300 HC 35.650002 34.100002 24.760000 98 299
301 HC 37.349998 33.770000 24.289999 98 299
302 HC 35.930000 33.910000 23.010002 98 299
303 OH 36.549999 35.619999 24.030001 96 299 304
304 HO 35.759998 36.090000 24.389999 97 303
305 CT 33.800003 37.780003 24.600000 99 306 307 308 309
306 HC 34.459999 38.209999 23.929998 98 305
307 HC 34.059998 38.189999 25.650002 98 305
308 HC 32.840000 38.049999 24.289999 98 305
309 OH 34.100002 36.489998 24.799999 96 305 310
310 HO 33.940002 36.279999 25.750000 97 309
311 CT 22.969999 35.239998 25.810001 99 312 313 314 315
312 HC 21.949999 35.150002 26.230000 98 311
313 HC 22.910000 35.590000 24.719999 98 311
314 HC 23.459999 36.010002 26.429998 98 311
315 OH 23.490000 33.940002 25.980000 96 311 316
316 HO 23.570002 33.610001 26.860001 97 315
317 CT 25.669998 28.529999 22.390001 99 318 319 320 321
318 HC 25.260000 29.030001 23.269999 98 317
319 HC 24.849998 27.959999 21.980000 98 317
320 HC 26.520000 27.930000 22.660000 98 317
321 OH 25.990000 29.470001 21.420000 96 317 322
322 HO 26.719999 30.030001 21.730001 97 321
323 CT 23.590000 21.870001 30.699999 99 324 325 326 327
324 HC 22.900000 22.139999 29.930000 98 323
325 HC 23.269999 20.930000 31.110001 98 323
326 HC 23.629999 22.650002 31.490000 98 323
327 OH 24.830000 21.650000 30.179998 96 323 328
328 HO 25.280001 22.449999 29.790001 97 327
329 CT 28.450001 33.919998 38.200001 99 330 331 332 333
330 HC 27.639999 33.320000 37.720001 98 329
331 HC 29.320000 34.200001 37.500000 98 329
332 HC 28.870001 33.410000 39.049999 98 329
333 OH 27.920000 35.180000 38.529999 96 329 334
334 HO 27.660000 35.639999 37.730000 97 333
335 CT 27.959999 21.189999 24.619999 99 336 337 338 339
336 HC 27.439999 20.490000 25.209999 98 335
337 HC 28.010002 20.699999 23.660000 98 335
338 HC 28.929998 21.359999 25.020000 98 335
339 OH 27.150000 22.390001 24.500000 96 335 340
340 HO 27.579998 23.110001 24.049999 97 339
341 CT 25.629999 36.440002 36.650002 99 342 343 344 345
342 HC 25.200001 35.439999 36.530003 98 341
343 HC 24.969999 37.070000 36.049999 98 341
344 HC 25.450001 36.639999 37.750000 98 341
345 OH 27.030001 36.400002 36.389999 96 341 346
346 HO 27.200001 36.090000 35.490002 97 345
347 CT 36.770000 30.209999 32.980000 99 348 349 350 351
348 HC 36.059998 29.760000 33.639999 98 347
349 HC 37.270000 29.440001 32.330002 98 347
350 HC 36.259998 30.910000 32.340000 98 347
351 OH 37.750000 30.869999 33.680000 96 347 352
352 HO 38.239998 31.470001 33.110001 97 351
353 CT 26.870001 19.270000 27.790001 99 354 355 356 357
354 HC 26.919998 18.670000 28.699999 98 353
355 HC 27.820000 19.590000 27.420002 98 353
356 HC 26.350000 20.220001 27.850000 98 353
357 OH 26.429998 18.469999 26.719999 96 353 358
358 HO 25.500000 18.459999 26.700001 97 357
359 CT 36.029999 21.930000 24.580000 99 360 361 362 363
360 HC 36.770000 22.670000 24.660000 98 359
361 HC 36.440002 20.910000 24.330002 98 359
362 HC 35.560001 21.870001 25.559999 98 359
363 OH 34.959999 22.430000 23.680000 96 359 364
364 HO 35.380001 22.700001 22.860001 97 363
365 CT 23.699999 37.490002 32.420002 99 366 367 368 369
366 HC 23.220001 38.360001 32.709999 98 365
367 HC 24.209999 37.809998 31.510000 98 365
368 HC 24.379999 37.160000 33.290001 98 365
369 OH 22.639999 36.580002 32.060001 96 365 370
370 HO 22.180000 36.320000 32.860001 97 369
371 CT 32.239998 26.570000 21.989998 99 372 373 374 375
372 HC 32.939999 25.869999 21.580000 98 371
373 HC 31.359999 25.950001 22.309999 98 371
374 HC 31.930000 27.260000 21.180000 98 371
375 OH 32.620003 27.360001 23.010002 96 371 376
376 HO 32.970001 26.830002 23.730000 97 375
377 CT 31.889999 23.180000 22.430000 99 378 379 380 381
378 HC 30.780001 23.160000 22.340000 98 377
379 HC 32.070000 22.080000 22.439999 98 377
380 HC 32.330002 23.670002 21.619999 98 377
381 OH 32.349998 23.680000 23.629999 96 377 382
382 HO 33.290001 23.490000 23.710001 97 381
383 CT 39.040001 26.740000 31.350000 99 384 385 386 387
384 HC 38.360001 26.540001 30.529999 98 383
385 HC 39.949997 27.130001 30.940001 98 383
386 HC 38.529999 27.530001 31.889999 98 383
387 OH 39.299999 25.699999 32.160000 96 383 388
388 HO 39.869999 25.060001 31.750000 97 387
389 CT 30.490000 17.940001 29.779999 99 390 391 392 393
390 HC 30.320000 17.430000 30.760000 98 389
391 HC 30.039999 17.270000 28.980000 98 389
392 HC 29.949999 18.830000 29.750000 98 389
393 OH 31.879999 18.220001 29.879999 96 389 394
394 HO 31.879999 19.010000 30.380001 97 393
395 CT 39.599998 28.880001 27.449999 99 396 397 398 399
396 HC 38.540001 28.770000 27.260000 98 395
397 HC 40.229996 28.380001 26.630001 98 395
398 HC 39.830002 28.369999 28.389999 98 395
399 OH 40.089996 30.190001 27.579998 96 395 400
400 HO 39.840000 30.760000 26.840000 97 399
401 CT 24.410000 24.650000 25.000000 99 402 403 404 405
402 HC 25.389999 24.440001 24.389999 98 401
403 HC 23.540001 24.580000 24.340000 98 401
404 HC 24.449999 25.590000 25.490000 98 401
405 OH 24.139999 23.699999 25.980000 96 401 406
406 HO 24.189999 22.830000 25.610001 97 405
407 CT 19.059999 27.550001 29.930000 99 408 409 410 411
408 HC 19.030001 27.660000 30.969999 98 407
409 HC 18.860001 28.510000 29.419998 98 407
410 HC 18.370001 26.770000 29.619999 98 407
411 OH 20.360001 27.139999 29.639999 96 407 412
412 HO 20.340000 27.010000 28.699999 97 411
413 CT 22.670000 28.870001 24.240000 99 414 415 416 417
414 HC 22.000000 28.410000 23.540001 98 413
415 HC 23.110001 29.690001 23.670002 98 413
416 HC 23.320000 28.039999 24.570000 98 413
417 OH 21.910000 29.570000 25.209999 96 413 418
418 HO 21.210001 30.020000 24.740000 97 417
419 CT 38.250000 31.590000 30.220001 99 420 421 422 423
420 HC 37.190002 31.809999 30.250000 98 419
421 HC 38.489998 31.980000 29.240000 98 419
422 HC 38.399998 30.559999 30.109999 98 419
423 OH 39.000000 32.130001 31.280001 96 419 424
424 HO 39.900002 31.870001 31.010000 97 423
425 CT 31.240002 37.529999 21.459999 99 426 427 428 429
426 HC 30.969999 36.650002 20.900000 98 425
427 HC 32.239998 37.529999 21.989998 98 425
428 HC 31.280001 38.340000 20.710001 98 425
429 OH 30.369999 37.880001 22.509998 96 425 430
430 HO 30.500000 38.860001 22.650002 97 429
431 CT 30.720001 19.440001 25.060001 99 432 433 434 435
432 HC 30.850000 20.510002 24.910000 98 431
433 HC 31.700001 18.980000 24.750000 98 431
434 HC 29.960001 19.180000 24.330002 98 431
435 OH 30.299999 19.030001 26.410000 96 431 436
436 HO 30.020000 18.139999 26.329998 97 435
437 CT 25.500000 39.860001 28.940001 99 438 439 440 441
438 HC 24.680000 39.920002 28.269999 98 437
439 HC 25.060001 40.050003 29.949999 98 437
440 HC 26.350000 40.400002 28.599998 98 437
441 OH 25.910000 38.489998 28.980000 96 437 442
442 HO 25.130001 37.970001 29.119999 97 441
443 CT 32.070000 40.510002 26.040001 99 444 445 446 447
444 HC 31.189999 39.920002 25.699999 98 443
445 HC 32.790001 40.459999 25.190001 98 443
446 HC 32.449997 40.019997 26.930000 98 443
447 OH 31.849998 41.889999 26.189999 96 443 448
448 HO 32.680000 42.280003 26.119999 97 447
449 CT 20.290001 33.000000 27.750000 99 450 451 452 453
450 HC 20.260000 32.780003 26.689999 98 449
451 HC 20.990000 32.330002 28.230000 98 449
452 HC 20.580002 34.000000 27.869999 98 449
453 OH 18.990000 32.930000 28.320000 96 449 454
454 HO 18.700001 32.110001 27.990000 97 453
455 CT 19.070000 30.869999 31.370001 99 456 457 458 459
456 HC 18.660000 30.000000 31.900002 98 455
457 HC 20.079998 30.830000 30.980000 98 455
458 HC 18.309999 31.059999 30.539999 98 455
459 OH 19.010000 31.910000 32.379997 96 455 460
460 HO 19.139999 32.739998 31.879999 97 459
461 CT 23.120001 29.000000 38.180000 99 462 463 464 465
462 HC 23.940001 29.570000 37.650002 98 461
463 HC 22.730000 28.310001 37.480000 98 461
464 HC 22.290001 29.719999 38.459999 98 461
465 OH 23.640001 28.389999 39.320000 96 461 466
466 HO 24.160000 27.700001 38.919998 97 465
467 CT 20.500000 26.870001 26.160000 99 468 469 470 471
468 HC 21.280001 26.510000 25.500000 98 467
469 HC 19.639999 27.270000 25.650002 98 467
470 HC 20.769999 27.700001 26.879999 98 467
471 OH 20.160000 25.690001 26.840000 96 467 472
472 HO 20.860001 25.280001 27.369999 97 471
473 CT 33.130001 33.419998 37.149998 99 474 475 476 477
474 HC 33.230000 34.459999 36.970001 98 473
475 HC 33.770000 32.959999 37.939999 98 473
476 HC 32.090000 33.340000 37.540001 98 473
477 OH 33.380001 32.639999 36.020000 96 473 478
478 HO 33.209999 33.150002 35.209999 97 477
479 CT 21.930000 37.579998 28.510000 99 480 481 482 483
480 HC 22.270000 37.840000 27.530001 98 479
481 HC 21.730001 36.530003 28.480000 98 479
482 HC 21.049999 38.110001 28.759998 98 479
483 OH 23.000000 37.700001 29.389999 96 479 484
484 HO 22.920000 37.119999 30.120001 97 483
485 CT 24.709999 21.559999 34.790001 99 486 487 488 489
486 HC 25.480001 20.750000 34.700001 98 485
487 HC 25.280001 22.480000 35.009998 98 485
488 HC 24.189999 21.600000 33.860001 98 485
489 OH 23.719999 21.580000 35.799999 96 485 490
490 HO 23.360001 22.430000 35.660000 97 489
491 CT 28.549999 30.150002 39.959999 99 492 493 494 495
492 HC 27.520000 30.469999 40.009998 98 491
493 HC 28.650000 29.580000 38.989998 98 491
494 HC 29.090000 31.099998 39.820000 98 491
495 OH 29.070000 29.430000 41.110001 96 491 496
496 HO 30.030001 29.419998 41.059998 97 495
497 CT 36.329998 19.430000 31.420000 99 498 499 500 501
498 HC 35.580002 18.869999 32.060001 98 497
499 HC 36.639999 20.299999 32.020000 98 497
500 HC 35.910000 19.850000 30.510002 98 497
501 OH 37.550003 18.710001 31.070002 96 497 502
502 HO 38.270000 18.880001 31.689999 97 501
503 CT 39.690002 24.719999 26.329998 99 504 505 506 507
504 HC 39.059998 24.540001 27.230000 98 503
505 HC 39.000000 24.879999 25.490000 98 503
506 HC 40.370003 23.970001 26.070002 98 503
507 OH 40.489998 25.910000 26.590000 96 503 508
508 HO 40.680000 26.180000 25.690001 97 507
509 CT 33.880001 24.289999 36.110001 99 510 511 512 513
510 HC 34.610001 24.570000 36.860001 98 509
511 HC 34.220001 24.180000 35.120003 98 509
512 HC 33.070000 24.960001 36.020000 98 509
513 OH 33.430000 22.969999 36.419998 96 509 514
514 HO 32.970001 23.139999 37.250000 97 513
515 CT 30.730000 39.130001 33.540001 99 516 517 518 519
516 HC 30.520000 38.099998 33.469997 98 515
517 HC 29.719999 39.570000 33.349998 98 515
518 HC 31.459999 39.310001 32.760002 98 515
519 OH 31.259998 39.690002 34.760002 96 515 520
520 HO 32.070000 39.200001 34.910000 97 519
521 CT 28.580000 22.509998 37.000000 99 522 523 524 525
522 HC 28.260000 21.970001 37.840000 98 521
523 HC 27.750000 23.039999 36.559998 98 521
524 HC 28.889999 21.740000 36.290001 98 521
525 OH 29.680000 23.380001 37.219997 96 521 526
526 HO 29.809999 23.829998 36.400002 97 525
527 CT 36.279999 21.879999 34.509998 99 528 529 530 531
528 HC 36.290001 22.260000 33.529999 98 527
529 HC 36.360001 22.709999 35.260002 98 527
530 HC 37.200001 21.340000 34.549999 98 527
531 OH 35.090000 21.160000 34.760002 96 527 532
532 HO 34.419998 21.820000 34.970001 97 531
533 CT 34.590000 36.779999 32.550003 99 534 535 536 537
534 HC 35.190002 37.730000 32.410000 98 533
535 HC 34.630001 36.259998 31.580000 98 533
536 HC 35.110001 36.189999 33.299999 98 533
537 OH 33.290001 36.959999 32.959999 96 533 538
538 HO 33.349998 37.790001 33.329998 97 537
539 CT 24.560001 25.320000 38.349998 99 540 541 542 543
540 HC 24.949999 24.570000 37.620003 98 539
541 HC 23.500000 25.389999 38.200001 98 539
542 HC 24.779999 24.879999 39.349998 98 539
543 OH 25.369999 26.520000 38.150002 96 539 544
544 HO 26.219999 26.350000 38.610001 97 543
545 CT 28.640001 27.959999 19.680000 99 546 547 548 549
546 HC 27.630001 28.380001 19.500000 98 545
547 HC 29.349998 28.789999 19.709999 98 545
548 HC 28.800001 27.209999 18.910000 98 545
549 OH 28.559999 27.490002 21.040001 96 545 550